(declare-fun $V22_speed$3 () Int)
(declare-fun $V109_cpt$3 () Int)
(declare-fun $V25_realistic$3 () Bool)
(declare-fun $OK$3 () Bool)
(declare-fun $V24_minus$0 () Bool)
(declare-fun $V109_cpt$0 () Int)
(declare-fun $V98_Sofar$0 () Bool)
(declare-fun $V98_Sofar$3 () Bool)
(declare-fun $V110_acceptable$3 () Bool)
(declare-fun $V23_plus$0 () Bool)
(declare-fun $V93_X$3 () Bool)
(declare-fun $diff$1 () Int)

(assert (let ((a!1 (or (not (<= (- 4) $diff$1))
               (not (<= $diff$1 4))
               (and $V23_plus$0 (not (>= $diff$1 1)))
               (and $V24_minus$0 (not (<= $diff$1 (- 1))))
               (not $V98_Sofar$0)
               (<= $V109_cpt$0 7)))
      (a!2 (and (<= (- 0 4) $diff$1)
                (<= $diff$1 4)
                (ite $V23_plus$0 (>= $diff$1 1) true)
                (ite $V24_minus$0 (<= $diff$1 (- 0 1)) true))))
(let ((a!3 (and $V98_Sofar$0 (and (< 8 16) a!2 (<= 0 8)))))
(let ((a!4 (and (= $OK$3 (or (<= $V109_cpt$0 7) (not a!3)))
                (= $V98_Sofar$3 a!3)
                (= $V25_realistic$3 a!2)
                (= $V93_X$3 (and (< 8 16) a!2 (<= 0 8)))
                (= $V22_speed$3 8)
                (= $V109_cpt$3 0)
                (= $V110_acceptable$3 true))))
  (ite a!1 a!4 true)))))
(check-sat)
